# vtk DataFile Version 2.0
File written by Defmod
ASCII
DATASET UNSTRUCTURED_GRID
POINTS 4 double
.000 1.000 .000
.000 .000 .000
1.000 1.000 .000
1.000 .000 .000
CELLS 1 5
4 0 1 3 2
CELL_TYPES 1
9
POINT_DATA 4
SCALARS STRESS FLOAT 3
LOOKUP_TABLE DEFAULT
105.000000 245.000000 .000000
105.000000 245.000000 .000000
105.000000 245.000000 .000000
105.000000 245.000000 .000000
VECTORS displacements double
.000000 .050000 .000000
.000000 .000000 .000000
-.000000 .050000 .000000
-.000000 .000000 .000000
