# vtk DataFile Version 2.0
File written by Defmod
ASCII
DATASET UNSTRUCTURED_GRID
POINTS 4 double
.000 2.000 .000
.000 1.000 .000
1.000 2.000 .000
1.000 1.000 .000
CELLS 1 5
4 0 1 3 2
CELL_TYPES 1
9
POINT_DATA 4
SCALARS STRESS FLOAT 3
LOOKUP_TABLE DEFAULT
.670870 .287516 -.263507
-2.348362 -1.006441 -.359333
.814608 .622905 .599130
6.380376 -8.616259 7.860698
VECTORS displacements double
-.000000 .000000 .000000
-.000000 -.000000 .000000
.000137 -.000188 .000000
-.000479 -.000257 .000000
