# vtk DataFile Version 2.0
File written by Defmod
ASCII
DATASET UNSTRUCTURED_GRID
POINTS 5 double
.000 .000 .000
1.000 1.000 .000
1.000 .000 .000
.000 1.000 .000
1.000 1.000 .000
CELLS 2 10
4 1 0 2 4
4 0 3 4 1
CELL_TYPES 2
9
9
POINT_DATA 5
SCALARS STRESS FLOAT 3
LOOKUP_TABLE DEFAULT
-1.499596 -18.565092 2.061395
6.380376 -8.616259 7.860698
-2.999193 8.631677 -3.432452
-2.999193 8.631677 -3.432452
10.945341 14.607906 6.045548
VECTORS displacements double
.000143 .000768 .000000
-.000479 -.000257 .000000
-.000583 -.000479 .000000
-.000218 .002000 .000000
.000469 .002000 .000000
