# vtk DataFile Version 2.0
File written by Defmod
ASCII
DATASET UNSTRUCTURED_GRID
POINTS 6 double
.000 1.000 .000
.000 .000 .000
1.000 1.000 .000
1.000 .000 .000
.000 1.000 .000
1.000 1.000 .000
CELLS 2 10
4 4 1 3 5
4 4 5 2 0
CELL_TYPES 2
9
9
POINT_DATA 6
SCALARS STRESS FLOAT 3
LOOKUP_TABLE DEFAULT
-.000064 -.000150 -.000000
-.277395 -.647256 .000000
.017692 .041281 -.011837
-.241884 -.564396 .000000
-.138698 -.647256 .023674
-.259640 -.605826 .011837
VECTORS displacements double
.000000 .000135 .000000
-.000000 -.000000 .000000
-.000000 .000118 .000000
.000000 -.000000 .000000
-.000000 -.000132 .000000
.000000 -.000115 .000000
