# vtk DataFile Version 2.0
File written by Defmod
ASCII
DATASET UNSTRUCTURED_GRID
POINTS 4 double
.000 2.000 .000
.000 1.000 .000
1.000 2.000 .000
1.000 1.000 .000
CELLS 1 5
4 0 1 3 2
CELL_TYPES 1
9
POINT_DATA 4
SCALARS STRESS FLOAT 3
LOOKUP_TABLE DEFAULT
.241756 .564096 -.000000
-.000064 -.000150 -.000000
.277267 .646957 -.000000
.017692 .041281 -.011837
VECTORS displacements double
.000000 .000250 .000000
.000000 .000135 .000000
-.000000 .000250 .000000
-.000000 .000118 .000000
